c description: Random 3-CNF over 17 variables and 72 clauses
c generator: CNFgen (0.9.2)
c copyright: (C) 2012-2022 Massimo Lauria <massimo.lauria@uniroma1.it>
c url: https://massimolauria.net/cnfgen
c command line: cnfgen --output CNF_4.28/17_bit_72_776.cnf randkcnf 3 17 72
c
p cnf 17 72
-3 -13 16 0
-5 15 17 0
4 -7 14 0
-3 -6 -13 0
-5 12 -13 0
-5 16 17 0
-6 -11 15 0
1 -4 -6 0
2 -15 16 0
-1 -3 -11 0
-1 13 -15 0
-3 8 -10 0
6 -8 13 0
2 -4 -16 0
6 10 14 0
9 -11 13 0
1 2 -9 0
-3 -9 -17 0
2 -9 12 0
-3 -6 11 0
3 -5 -12 0
6 -8 -14 0
2 -10 16 0
2 14 -15 0
2 -6 -16 0
1 3 12 0
-7 8 -12 0
-3 -5 -10 0
1 7 -11 0
4 5 -11 0
-3 5 -13 0
8 -11 12 0
1 15 17 0
6 -7 10 0
-1 -10 -12 0
3 9 14 0
1 -5 13 0
-3 -9 -14 0
1 -13 -15 0
-6 7 10 0
5 6 -16 0
-4 16 17 0
9 14 -17 0
4 -8 -12 0
1 -13 17 0
-2 -7 -14 0
1 11 15 0
-2 7 12 0
-4 -7 -10 0
3 4 -6 0
5 12 17 0
-2 -6 -16 0
-5 12 14 0
-3 5 -8 0
3 12 13 0
6 -9 13 0
4 -5 -6 0
-5 -9 13 0
-1 14 -16 0
10 11 14 0
-5 8 17 0
1 -7 8 0
1 -2 6 0
-4 13 14 0
3 -10 15 0
-10 12 13 0
-2 -9 -10 0
1 11 -17 0
5 10 -17 0
-8 14 17 0
-7 14 -17 0
-9 -13 17 0
